NAME : tsp50_16.220.tour
COMMENT : Length = 220
COMMENT : Found by LKH [Keld Helsgaun]
TYPE : TOUR
DIMENSION : 50
TOUR_SECTION
1
8
9
49
40
10
41
17
33
22
18
6
13
36
28
3
45
19
37
7
5
44
34
46
32
24
2
20
27
11
30
15
14
12
23
42
39
38
50
47
35
4
25
21
16
43
48
26
29
31
-1
EOF
